1179.59,48.01,57.53
1150.08,49.24,59.01
1295.92,43.7,52.37
1065.49,53.15,63.69
1106.72,51.17,61.32
1090.84,51.91,62.21
1135.8,49.86,59.75
989.99,57.2,68.55
1137.86,49.77,59.64
1256.54,45.07,54.01
1149.19,49.28,59.06
1132.12,50.02,59.95
1170.81,48.37,57.96
1074.25,52.71,63.17
1153.61,49.09,58.83
1036.25,54.64,65.49
1167.81,48.49,58.11
1029.39,55.01,65.93
1221.6,46.35,55.56
1197.88,47.27,56.66
